% seed = 2304559

mint = 40;
% maxt = 107;

nActs = 22;
dur = [0,8,4,5,6,2,4,5,10,3,10,2,9,8,7,4,2,1,4,5,8,0];

nSkills = 4;
sreq = [| 0,0,0,0,
	| 3,0,0,3,
	| 0,2,1,2,
	| 1,1,3,3,
	| 0,3,2,0,
	| 1,0,1,3,
	| 0,1,1,2,
	| 1,2,2,3,
	| 2,1,1,2,
	| 2,0,3,3,
	| 1,1,3,2,
	| 1,2,2,2,
	| 0,3,0,3,
	| 1,0,2,0,
	| 1,0,3,1,
	| 3,1,2,1,
	| 3,1,3,0,
	| 2,1,3,1,
	| 0,1,1,3,
	| 2,0,2,2,
	| 1,1,1,2,
	| 0,0,0,0, |];

nResources = 20;
mastery = [| true,false,true,true,
	| false,false,true,false,
	| true,false,true,true,
	| true,false,true,false,
	| true,true,false,false,
	| true,false,false,true,
	| false,false,true,true,
	| true,false,false,false,
	| false,false,false,true,
	| false,true,true,true,
	| false,false,false,true,
	| true,false,true,false,
	| false,false,false,true,
	| false,true,false,false,
	| true,true,false,true,
	| false,false,true,true,
	| false,false,false,true,
	| false,true,false,false,
	| false,false,false,true,
	| false,true,true,false, |];

nPrecs = 43;
pred = [1,1,1,2,2,2,3,3,3,4,4,5,5,5,6,6,6,7,7,8,8,8,9,9,9,10,11,11,11,12,12,13,14,14,15,16,16,17,18,18,19,20,21];
succ = [2,3,4,11,13,6,5,14,16,9,6,10,21,7,10,7,8,20,15,17,12,15,11,13,16,15,17,18,12,19,21,14,18,21,19,17,18,20,19,20,22,22,22];

nUnrels = 88;
unpred = [2,2,2,2,2,3,3,3,3,3,3,3,4,5,5,5,5,5,5,5,5,5,5,6,6,6,6,6,6,7,7,7,7,7,7,7,7,7,7,7,8,8,8,8,8,8,8,9,9,10,10,10,10,10,10,10,10,10,11,11,11,11,12,12,12,12,12,12,12,13,13,13,14,14,14,15,15,15,15,15,16,17,17,17,18,19,19,20];
unsucc = [3,4,5,9,16,4,6,8,9,11,12,13,5,6,8,9,11,12,13,14,16,17,18,9,11,13,14,16,18,8,9,10,11,12,13,14,16,17,18,21,9,10,11,13,14,16,18,10,15,11,12,13,14,16,17,18,20,21,13,14,15,16,13,14,15,16,17,18,20,15,16,17,15,16,17,16,17,18,20,21,21,18,19,21,21,20,21,21];

USEFUL_RES = [{},
	{1,3,4,5,6,7,8,9,10,11,12,13,15,16,17,19},
	{1,2,3,4,5,6,7,9,10,11,12,13,14,15,16,17,18,19,20},
	{1,2,3,4,5,6,7,8,9,10,11,12,13,14,15,16,17,18,19,20},
	{1,2,3,4,5,7,10,12,14,15,16,18,20},
	{1,2,3,4,5,6,7,8,9,10,11,12,13,15,16,17,19,20},
	{1,2,3,4,5,6,7,9,10,11,12,13,14,15,16,17,18,19,20},
	{1,2,3,4,5,6,7,8,9,10,11,12,13,14,15,16,17,18,19,20},
	{1,2,3,4,5,6,7,8,9,10,11,12,13,14,15,16,17,18,19,20},
	{1,2,3,4,5,6,7,8,9,10,11,12,13,15,16,17,19,20},
	{1,2,3,4,5,6,7,8,9,10,11,12,13,14,15,16,17,18,19,20},
	{1,2,3,4,5,6,7,8,9,10,11,12,13,14,15,16,17,18,19,20},
	{1,3,5,6,7,9,10,11,13,14,15,16,17,18,19,20},
	{1,2,3,4,5,6,7,8,10,12,15,16,20},
	{1,2,3,4,5,6,7,8,9,10,11,12,13,15,16,17,19,20},
	{1,2,3,4,5,6,7,8,9,10,11,12,13,14,15,16,17,18,19,20},
	{1,2,3,4,5,6,7,8,10,12,14,15,16,18,20},
	{1,2,3,4,5,6,7,8,9,10,11,12,13,14,15,16,17,18,19,20},
	{1,2,3,4,5,6,7,9,10,11,12,13,14,15,16,17,18,19,20},
	{1,2,3,4,5,6,7,8,9,10,11,12,13,15,16,17,19,20},
	{1,2,3,4,5,6,7,8,9,10,11,12,13,14,15,16,17,18,19,20},
	{}];

POTENTIAL_ACT = [{2,3,4,5,6,7,8,9,10,11,12,13,14,15,16,17,18,19,20,21},
	{3,4,5,6,7,8,9,10,11,12,14,15,16,17,18,19,20,21},
	{2,3,4,5,6,7,8,9,10,11,12,13,14,15,16,17,18,19,20,21},
	{2,3,4,5,6,7,8,9,10,11,12,14,15,16,17,18,19,20,21},
	{2,3,4,5,6,7,8,9,10,11,12,13,14,15,16,17,18,19,20,21},
	{2,3,4,6,7,8,9,10,11,12,13,14,15,16,17,18,19,20,21},
	{2,3,4,5,6,7,8,9,10,11,12,13,14,15,16,17,18,19,20,21},
	{2,4,6,8,9,10,11,12,14,15,16,17,18,20,21},
	{2,3,4,6,7,8,9,10,11,12,13,15,16,18,19,20,21},
	{2,3,4,5,6,7,8,9,10,11,12,13,14,15,16,17,18,19,20,21},
	{2,3,4,6,7,8,9,10,11,12,13,15,16,18,19,20,21},
	{2,3,4,5,6,7,8,9,10,11,12,14,15,16,17,18,19,20,21},
	{2,3,4,6,7,8,9,10,11,12,13,15,16,18,19,20,21},
	{3,4,5,7,8,9,11,12,13,16,17,18,19,21},
	{2,3,4,5,6,7,8,9,10,11,12,13,14,15,16,17,18,19,20,21},
	{2,3,4,5,6,7,8,9,10,11,12,13,14,15,16,17,18,19,20,21},
	{2,3,4,6,7,8,9,10,11,12,13,15,16,18,19,20,21},
	{3,4,5,7,8,9,11,12,13,16,17,18,19,21},
	{2,3,4,6,7,8,9,10,11,12,13,15,16,18,19,20,21},
	{3,4,5,6,7,8,9,10,11,12,13,14,15,16,17,18,19,20,21}];
